p wcnf 120 1400
6 -117 -119 0
5 -115 -117 0
1 -114 -118 0
8 -112 -115 0
5 -111 -120 0
3 -111 -112 0
7 -111 113 0
2 -110 -119 0
4 -110 -118 0
9 -109 -111 0
9 -109 111 0
5 -108 -120 0
2 -108 -112 0
2 -108 -110 0
6 -108 112 0
5 -108 119 0
5 -107 -111 0
5 -106 -108 0
8 -106 108 0
6 -106 112 0
5 -106 116 0
9 -105 118 0
1 -104 -117 0
2 -103 109 0
9 -102 -112 0
6 -102 104 0
7 -101 -109 0
9 -101 -106 0
7 -101 103 0
7 -99 -108 0
3 -99 103 0
3 -98 110 0
2 -98 113 0
3 -97 -107 0
1 -97 -105 0
5 -96 100 0
5 -96 107 0
7 -96 112 0
7 -95 -96 0
8 -95 99 0
6 -94 -109 0
5 -93 -119 0
3 -93 -102 0
7 -93 -97 0
7 -93 100 0
8 -93 117 0
2 -93 118 0
2 -92 95 0
2 -92 109 0
9 -91 -110 0
6 -90 -107 0
7 -89 -110 0
8 -89 98 0
7 -89 99 0
8 -89 104 0
7 -88 -114 0
2 -88 -113 0
5 -88 -96 0
6 -88 -95 0
8 -88 91 0
2 -88 115 0
7 -87 95 0
1 -87 103 0
3 -87 109 0
9 -86 -90 0
1 -85 -120 0
7 -85 -107 0
4 -85 91 0
7 -85 103 0
4 -84 -117 0
2 -84 -101 0
3 -84 -94 0
8 -84 -89 0
4 -84 94 0
9 -84 95 0
5 -84 114 0
1 -83 -116 0
9 -83 108 0
5 -83 117 0
3 -82 -114 0
8 -82 -100 0
2 -82 -99 0
8 -82 90 0
6 -82 93 0
7 -82 115 0
6 -81 -105 0
4 -81 -90 0
9 -81 96 0
10 -80 -104 0
8 -80 -103 0
7 -80 98 0
1 -80 101 0
6 -80 107 0
7 -80 116 0
3 -80 119 0
5 -79 -116 0
8 -79 -115 0
9 -79 -113 0
8 -79 -104 0
5 -79 -96 0
3 -79 -83 0
9 -79 86 0
7 -79 98 0
10 -79 101 0
3 -78 -104 0
5 -78 -94 0
4 -78 86 0
3 -77 -103 0
5 -77 -88 0
9 -77 80 0
5 -77 83 0
3 -77 114 0
9 -76 -109 0
4 -76 -103 0
8 -76 -100 0
7 -76 -97 0
9 -76 -87 0
2 -76 85 0
6 -76 104 0
8 -76 108 0
9 -76 118 0
3 -75 -101 0
9 -75 -92 0
5 -75 -89 0
9 -75 119 0
2 -74 -118 0
9 -74 -101 0
7 -74 -95 0
10 -74 -92 0
7 -74 96 0
2 -74 98 0
2 -73 93 0
6 -73 96 0
8 -72 -120 0
2 -72 -111 0
8 -72 100 0
3 -71 -97 0
5 -71 -89 0
10 -71 80 0
7 -71 91 0
4 -71 103 0
5 -70 -119 0
8 -70 -90 0
3 -70 -88 0
8 -70 74 0
6 -70 77 0
9 -69 -117 0
6 -69 -105 0
7 -69 -90 0
5 -69 -84 0
4 -69 -70 0
6 -69 98 0
7 -69 119 0
3 -68 -103 0
9 -68 -98 0
7 -68 69 0
4 -68 104 0
8 -67 -102 0
4 -67 -86 0
4 -67 -77 0
4 -66 -90 0
5 -66 -72 0
5 -66 -70 0
9 -66 95 0
2 -65 -88 0
6 -65 -72 0
7 -65 78 0
4 -65 85 0
1 -64 -98 0
7 -64 -94 0
10 -64 -89 0
4 -64 -66 0
2 -64 72 0
8 -64 77 0
6 -64 102 0
8 -63 -112 0
4 -63 70 0
6 -63 73 0
4 -63 84 0
1 -63 102 0
1 -63 117 0
8 -62 -103 0
6 -62 -86 0
7 -62 -80 0
10 -62 67 0
5 -62 87 0
4 -61 -98 0
4 -61 75 0
3 -61 82 0
7 -61 85 0
6 -61 102 0
6 -61 103 0
2 -60 -85 0
1 -60 65 0
5 -60 76 0
3 -60 98 0
6 -60 108 0
2 -59 -71 0
6 -59 63 0
6 -59 66 0
8 -59 70 0
6 -59 74 0
9 -58 -116 0
8 -58 -93 0
5 -58 64 0
5 -58 72 0
6 -58 73 0
8 -58 87 0
1 -57 -120 0
9 -57 -116 0
8 -57 59 0
1 -57 66 0
7 -57 71 0
4 -57 87 0
8 -56 -115 0
7 -56 -112 0
8 -56 -98 0
2 -56 -88 0
9 -56 -84 0
10 -56 -69 0
8 -56 -66 0
5 -56 -65 0
6 -56 -62 0
8 -56 66 0
5 -56 87 0
1 -56 92 0
1 -56 104 0
1 -56 107 0
2 -56 111 0
7 -55 -102 0
6 -55 -73 0
9 -55 -64 0
3 -55 -60 0
5 -55 82 0
7 -55 84 0
7 -55 108 0
9 -55 118 0
3 -54 -120 0
5 -54 58 0
10 -54 84 0
2 -54 88 0
3 -53 -115 0
10 -53 -105 0
8 -53 -103 0
5 -53 -99 0
8 -53 -65 0
5 -53 -64 0
3 -53 83 0
8 -52 -116 0
5 -52 -114 0
2 -52 -58 0
6 -52 81 0
9 -52 97 0
7 -51 -75 0
4 -51 -67 0
5 -51 61 0
7 -51 90 0
5 -51 103 0
5 -51 106 0
8 -51 110 0
1 -50 -114 0
1 -50 -67 0
7 -50 55 0
4 -50 56 0
5 -50 57 0
4 -50 60 0
9 -50 109 0
5 -49 -94 0
6 -49 -90 0
4 -49 -74 0
4 -49 -70 0
7 -49 -56 0
6 -49 -51 0
4 -49 61 0
5 -49 80 0
10 -49 108 0
2 -49 116 0
10 -49 117 0
3 -48 -119 0
9 -48 -89 0
4 -48 -83 0
4 -48 -78 0
5 -48 63 0
4 -48 99 0
1 -47 -69 0
9 -47 -58 0
7 -47 -51 0
8 -47 61 0
3 -47 97 0
2 -47 99 0
6 -46 -113 0
4 -46 -88 0
2 -46 -55 0
3 -46 51 0
6 -46 67 0
7 -46 74 0
6 -46 91 0
5 -46 100 0
1 -45 -103 0
1 -45 -70 0
8 -45 -68 0
5 -45 -49 0
7 -45 85 0
4 -45 104 0
8 -44 -106 0
3 -44 -97 0
4 -44 -82 0
9 -44 -65 0
2 -44 -47 0
6 -44 75 0
8 -44 107 0
6 -43 -96 0
9 -43 -77 0
4 -43 -74 0
8 -43 -58 0
9 -43 -48 0
2 -43 53 0
6 -43 56 0
7 -43 72 0
5 -42 -114 0
7 -42 -78 0
3 -42 -63 0
7 -42 54 0
8 -42 62 0
5 -42 65 0
3 -42 68 0
4 -42 92 0
9 -42 107 0
7 -42 117 0
5 -41 -120 0
10 -41 -115 0
6 -41 -110 0
8 -41 -70 0
7 -41 -51 0
9 -41 42 0
7 -41 70 0
9 -41 107 0
3 -40 -92 0
6 -40 -90 0
1 -40 47 0
7 -40 54 0
4 -40 74 0
6 -40 75 0
6 -40 83 0
7 -40 85 0
5 -40 96 0
5 -40 119 0
8 -39 -100 0
9 -39 -56 0
2 -39 40 0
3 -39 55 0
6 -39 62 0
3 -38 -120 0
9 -38 -97 0
4 -38 -91 0
7 -38 -83 0
2 -38 -66 0
7 -38 -64 0
7 -38 -39 0
8 -38 42 0
2 -38 45 0
6 -38 46 0
4 -38 58 0
10 -38 61 0
3 -37 -110 0
3 -37 -103 0
6 -37 -97 0
2 -37 -96 0
5 -37 -55 0
2 -37 63 0
3 -37 65 0
2 -37 79 0
5 -37 92 0
8 -37 108 0
7 -36 -112 0
2 -36 -109 0
3 -36 -84 0
2 -36 -59 0
9 -36 -54 0
2 -36 67 0
3 -36 87 0
1 -36 99 0
7 -35 -78 0
5 -35 -36 0
9 -35 64 0
10 -35 69 0
3 -35 88 0
10 -35 111 0
7 -35 115 0
8 -34 -105 0
8 -34 -100 0
8 -34 -91 0
4 -34 -69 0
2 -34 -61 0
8 -33 -107 0
7 -33 -82 0
4 -33 -76 0
4 -33 -49 0
8 -33 -38 0
8 -33 55 0
5 -33 87 0
1 -32 -114 0
9 -32 -104 0
9 -32 -91 0
8 -32 -84 0
6 -32 -83 0
9 -32 -78 0
10 -32 -76 0
7 -32 -57 0
8 -32 34 0
2 -32 37 0
9 -32 95 0
8 -31 -120 0
8 -31 -95 0
4 -31 -83 0
7 -31 -73 0
8 -31 -62 0
6 -31 -54 0
7 -31 -45 0
5 -31 54 0
4 -31 62 0
5 -30 -117 0
3 -30 -80 0
8 -30 -46 0
6 -30 -45 0
2 -30 -40 0
4 -30 -39 0
9 -30 40 0
5 -30 71 0
3 -30 72 0
7 -29 -117 0
9 -29 -84 0
3 -29 -41 0
5 -29 -32 0
8 -29 42 0
1 -29 60 0
1 -29 80 0
7 -29 85 0
10 -29 86 0
7 -29 94 0
5 -28 -119 0
2 -28 -113 0
6 -28 -103 0
4 -28 -95 0
9 -28 -45 0
10 -28 -41 0
1 -28 -32 0
6 -28 44 0
6 -28 52 0
7 -28 80 0
1 -28 100 0
9 -27 -110 0
2 -27 -69 0
4 -27 -48 0
6 -27 -43 0
7 -27 32 0
4 -27 47 0
10 -27 53 0
6 -27 66 0
8 -27 81 0
3 -27 83 0
3 -27 91 0
7 -27 107 0
5 -26 -112 0
7 -26 -62 0
5 -26 -55 0
5 -26 28 0
7 -26 35 0
2 -26 59 0
4 -26 60 0
5 -26 94 0
7 -26 114 0
5 -25 -114 0
10 -25 -101 0
10 -25 -81 0
4 -25 -59 0
10 -25 -56 0
1 -25 -50 0
9 -25 -39 0
5 -25 -33 0
7 -25 69 0
9 -25 105 0
4 -25 116 0
9 -24 -93 0
3 -24 -83 0
9 -24 -71 0
6 -24 -28 0
7 -24 26 0
9 -23 -66 0
2 -23 -59 0
5 -23 -41 0
2 -23 41 0
4 -23 56 0
2 -23 89 0
5 -22 -107 0
1 -22 -80 0
6 -22 -62 0
9 -22 -55 0
8 -22 -32 0
7 -22 -27 0
3 -22 46 0
2 -22 99 0
4 -22 106 0
8 -21 -111 0
2 -21 -105 0
4 -21 -99 0
1 -21 -94 0
2 -21 -84 0
4 -21 -80 0
10 -21 -36 0
6 -21 -25 0
1 -21 44 0
9 -21 57 0
9 -21 65 0
9 -20 -80 0
2 -20 -62 0
8 -20 -60 0
5 -20 -32 0
8 -20 -25 0
8 -20 35 0
7 -20 39 0
2 -20 47 0
9 -20 61 0
10 -20 119 0
3 -19 -88 0
4 -19 -82 0
1 -19 -74 0
8 -19 -70 0
3 -19 -61 0
8 -19 -31 0
5 -19 -29 0
5 -19 -21 0
9 -19 34 0
8 -19 45 0
3 -19 52 0
1 -19 56 0
2 -19 61 0
3 -19 65 0
2 -19 99 0
5 -18 -112 0
3 -18 -37 0
7 -18 20 0
5 -18 40 0
2 -18 64 0
6 -18 68 0
4 -18 76 0
3 -18 98 0
4 -17 -112 0
8 -17 -104 0
10 -17 -96 0
1 -17 -71 0
5 -17 -65 0
2 -17 -49 0
9 -17 27 0
5 -17 43 0
5 -17 44 0
3 -17 70 0
5 -17 86 0
3 -17 107 0
5 -17 118 0
3 -16 -109 0
7 -16 -103 0
9 -16 -97 0
2 -16 -86 0
6 -16 -67 0
2 -16 -55 0
2 -16 18 0
7 -16 45 0
4 -16 78 0
2 -16 83 0
1 -16 84 0
6 -16 94 0
8 -16 99 0
5 -15 -105 0
7 -15 -90 0
3 -15 -83 0
8 -15 -75 0
9 -15 -37 0
6 -15 -20 0
6 -15 31 0
9 -15 47 0
7 -15 53 0
1 -15 63 0
2 -15 91 0
6 -14 -71 0
5 -14 -59 0
5 -14 -54 0
8 -14 -40 0
9 -14 -39 0
7 -14 -29 0
3 -14 -24 0
1 -14 -20 0
5 -14 25 0
2 -14 32 0
2 -14 58 0
10 -14 103 0
3 -14 119 0
3 -13 -68 0
6 -13 -57 0
6 -13 -52 0
4 -13 -40 0
7 -13 -31 0
3 -13 16 0
2 -13 33 0
2 -13 47 0
9 -13 72 0
4 -12 -92 0
9 -12 -90 0
8 -12 -46 0
9 -12 14 0
6 -12 23 0
7 -12 45 0
6 -12 67 0
6 -11 -25 0
8 -11 -22 0
2 -11 -21 0
1 -11 30 0
3 -11 61 0
9 -11 96 0
9 -11 112 0
9 -11 115 0
1 -10 -120 0
10 -10 -109 0
4 -10 -102 0
2 -10 -100 0
2 -10 -96 0
4 -10 -36 0
4 -10 -31 0
3 -10 -28 0
9 -10 11 0
9 -10 43 0
6 -10 65 0
6 -10 76 0
2 -10 116 0
7 -9 -111 0
7 -9 -88 0
10 -9 -71 0
1 -9 28 0
6 -9 43 0
8 -9 71 0
10 -9 75 0
2 -9 89 0
5 -9 97 0
6 -8 -119 0
7 -8 -91 0
3 -8 -67 0
7 -8 -46 0
8 -8 -42 0
5 -8 -23 0
6 -8 88 0
7 -8 113 0
4 -8 114 0
6 -7 -119 0
6 -7 -99 0
7 -7 -77 0
7 -7 -41 0
7 -7 -39 0
1 -7 -27 0
1 -7 14 0
9 -7 23 0
9 -7 30 0
10 -7 35 0
5 -7 36 0
5 -7 88 0
2 -7 112 0
2 -7 114 0
2 -7 117 0
1 -6 -106 0
2 -6 -30 0
8 -6 10 0
8 -6 29 0
2 -6 70 0
9 -6 91 0
2 -6 95 0
7 -6 109 0
6 -5 -88 0
4 -5 -84 0
4 -5 -69 0
3 -5 -66 0
8 -5 -20 0
8 -5 29 0
9 -5 71 0
2 -5 87 0
4 -5 93 0
6 -4 -116 0
8 -4 -113 0
1 -4 -89 0
2 -4 -88 0
8 -4 -81 0
2 -4 -58 0
2 -4 -49 0
8 -4 -35 0
1 -4 -6 0
6 -4 11 0
3 -4 28 0
2 -4 36 0
7 -4 53 0
4 -3 -120 0
2 -3 -113 0
8 -3 -112 0
2 -3 -91 0
8 -3 -59 0
9 -3 -29 0
9 -3 -8 0
10 -3 19 0
6 -3 64 0
5 -3 79 0
4 -3 92 0
8 -2 -102 0
8 -2 -79 0
1 -2 -60 0
7 -2 -47 0
7 -2 -39 0
2 -2 -6 0
10 -2 -5 0
3 -2 6 0
9 -2 46 0
10 -2 73 0
4 -2 78 0
7 -2 85 0
1 -2 95 0
5 -2 113 0
5 -1 -116 0
2 -1 -107 0
9 -1 -99 0
7 -1 -74 0
2 -1 -73 0
6 -1 -67 0
1 -1 -48 0
3 -1 16 0
5 -1 39 0
2 -1 43 0
1 -1 65 0
4 -1 70 0
2 1 -120 0
1 1 -111 0
9 1 -110 0
6 1 -105 0
4 1 -83 0
7 1 -76 0
4 1 -66 0
4 1 -47 0
4 1 -38 0
10 1 -31 0
5 1 -18 0
3 1 -16 0
2 1 14 0
4 1 74 0
3 1 103 0
5 2 -120 0
1 2 -119 0
4 2 -112 0
9 2 -94 0
5 2 -88 0
4 2 -87 0
8 2 -73 0
2 2 -11 0
5 2 8 0
5 2 21 0
2 2 51 0
7 2 76 0
8 2 91 0
4 2 99 0
8 2 114 0
2 3 -116 0
4 3 -81 0
8 3 -69 0
10 3 -57 0
9 3 -31 0
2 3 -27 0
7 3 -14 0
3 3 -13 0
5 3 13 0
10 3 27 0
3 3 34 0
9 3 76 0
3 3 101 0
4 4 -111 0
2 4 -109 0
5 4 -79 0
8 4 -52 0
2 4 -44 0
8 4 -43 0
7 4 -15 0
6 4 95 0
2 4 99 0
6 5 -90 0
7 5 -69 0
6 5 -67 0
10 5 -35 0
9 5 -28 0
4 5 -18 0
8 5 -11 0
3 5 -7 0
1 5 12 0
9 5 36 0
6 5 49 0
8 5 54 0
9 5 86 0
5 5 97 0
9 5 100 0
6 5 104 0
7 5 110 0
4 6 -90 0
6 6 -80 0
8 6 -52 0
2 6 -22 0
8 6 -19 0
2 6 -7 0
4 6 110 0
3 7 -118 0
9 7 -116 0
5 7 -100 0
10 7 -31 0
7 7 -22 0
1 7 18 0
2 7 44 0
2 7 46 0
8 7 60 0
7 7 77 0
2 7 80 0
7 7 84 0
10 7 86 0
9 7 98 0
8 7 107 0
1 7 109 0
8 8 -114 0
4 8 -91 0
8 8 -56 0
7 8 15 0
8 8 24 0
7 8 25 0
3 8 26 0
4 8 27 0
1 8 30 0
8 8 46 0
2 8 49 0
3 8 90 0
6 8 94 0
3 9 -107 0
5 9 -102 0
8 9 -79 0
2 9 -53 0
9 9 -51 0
8 9 -46 0
8 9 -33 0
9 9 17 0
9 9 29 0
9 9 36 0
7 9 60 0
6 9 62 0
2 9 77 0
4 9 119 0
6 10 -115 0
10 10 -111 0
2 10 -98 0
6 10 -94 0
8 10 -74 0
5 10 -72 0
4 10 -16 0
5 10 44 0
2 10 63 0
2 10 82 0
7 10 90 0
5 10 100 0
2 11 -116 0
5 11 -114 0
7 11 -111 0
3 11 -100 0
10 11 -80 0
9 11 -52 0
8 11 -38 0
8 11 17 0
1 11 60 0
7 11 94 0
6 11 115 0
8 12 -13 0
6 12 22 0
4 12 52 0
8 12 80 0
3 12 88 0
9 12 91 0
8 13 -108 0
5 13 -98 0
5 13 -87 0
8 13 -70 0
6 13 -44 0
9 13 -42 0
6 13 -41 0
10 13 -40 0
3 13 -19 0
10 13 -15 0
2 13 39 0
4 13 49 0
7 13 105 0
6 13 120 0
5 14 -100 0
2 14 -88 0
3 14 -71 0
7 14 -68 0
2 14 -67 0
1 14 -51 0
5 14 38 0
9 14 51 0
2 14 60 0
1 14 109 0
5 15 -108 0
9 15 -104 0
6 15 -35 0
8 15 -31 0
7 15 -25 0
8 15 37 0
7 15 43 0
5 15 47 0
3 15 53 0
2 15 74 0
3 15 82 0
8 15 100 0
2 15 109 0
7 15 111 0
8 15 115 0
4 16 -98 0
7 16 -92 0
9 16 -79 0
7 16 -69 0
4 16 -66 0
5 16 -36 0
2 16 -31 0
5 16 -17 0
6 16 44 0
8 16 73 0
6 16 96 0
7 16 114 0
3 17 -88 0
4 17 -86 0
7 17 -81 0
3 17 -60 0
8 17 -43 0
6 17 -18 0
8 17 28 0
6 17 55 0
3 17 60 0
6 17 71 0
3 17 79 0
7 17 88 0
8 18 -115 0
4 18 -113 0
9 18 -104 0
6 18 -94 0
5 18 -81 0
6 18 71 0
4 18 93 0
8 18 98 0
3 19 -85 0
2 19 -30 0
5 19 30 0
5 19 40 0
6 19 50 0
6 19 93 0
9 19 110 0
2 20 -88 0
4 20 -48 0
4 20 -47 0
8 20 -32 0
5 20 -28 0
8 20 -24 0
5 20 27 0
7 20 67 0
6 20 86 0
1 21 -98 0
5 21 -64 0
2 21 -56 0
3 21 23 0
9 21 35 0
4 21 72 0
9 21 92 0
7 21 97 0
7 21 101 0
8 21 111 0
3 21 119 0
2 22 -110 0
3 22 -103 0
6 22 -86 0
9 22 -65 0
5 22 -43 0
7 22 -23 0
4 22 58 0
9 22 63 0
2 22 84 0
8 22 98 0
8 23 -108 0
3 23 -83 0
2 23 -71 0
2 23 -50 0
1 23 -48 0
6 23 29 0
9 23 38 0
5 23 51 0
3 23 70 0
5 23 89 0
6 23 105 0
7 23 106 0
5 24 -97 0
8 24 -90 0
6 24 -43 0
8 24 -36 0
7 24 -28 0
3 24 39 0
5 24 47 0
5 24 91 0
5 24 112 0
6 25 -103 0
7 25 -100 0
9 25 -76 0
5 25 -62 0
2 25 -35 0
6 25 30 0
8 25 36 0
1 25 90 0
7 26 -116 0
6 26 -110 0
8 26 -105 0
10 26 -98 0
7 26 -81 0
9 26 -78 0
10 26 -30 0
3 26 85 0
8 26 91 0
5 26 94 0
5 26 100 0
3 26 105 0
9 27 -112 0
1 27 -105 0
7 27 -82 0
7 27 -76 0
6 27 -73 0
5 27 -48 0
4 27 -38 0
8 27 -35 0
9 27 98 0
8 27 107 0
3 28 -117 0
5 28 -62 0
5 28 43 0
3 28 61 0
9 28 72 0
6 28 75 0
8 28 100 0
6 28 112 0
6 28 113 0
5 28 114 0
2 29 -112 0
4 29 -106 0
4 29 -95 0
8 29 -88 0
3 29 -45 0
4 29 56 0
10 29 86 0
1 30 -117 0
8 30 -47 0
5 30 -38 0
3 30 -34 0
8 30 49 0
5 30 53 0
9 30 94 0
5 30 95 0
1 30 103 0
3 30 116 0
8 30 117 0
9 31 -85 0
2 31 57 0
6 31 61 0
2 31 66 0
6 31 88 0
1 31 115 0
3 32 -108 0
5 32 -47 0
6 32 -45 0
10 32 -34 0
10 32 57 0
2 32 72 0
5 32 114 0
2 33 -50 0
5 33 48 0
8 33 49 0
9 33 77 0
8 34 -91 0
2 34 -90 0
9 34 -85 0
8 34 -66 0
9 34 38 0
3 34 116 0
1 35 -99 0
7 35 -97 0
7 35 -68 0
9 35 -52 0
2 35 81 0
8 36 -118 0
2 36 -111 0
9 36 -99 0
6 36 -52 0
4 36 -49 0
5 36 57 0
7 36 115 0
9 37 -91 0
6 37 -86 0
9 37 -65 0
3 37 -59 0
2 37 -58 0
9 37 -47 0
3 37 -42 0
3 37 -41 0
4 37 69 0
4 37 95 0
8 37 115 0
2 38 -54 0
3 38 56 0
6 38 82 0
3 38 93 0
1 39 -105 0
4 39 -89 0
2 39 -63 0
4 39 -46 0
4 39 48 0
8 39 63 0
1 39 87 0
2 39 89 0
9 39 97 0
8 39 99 0
4 40 -87 0
8 40 -81 0
4 40 -73 0
6 40 55 0
3 41 -88 0
10 41 67 0
5 41 80 0
8 41 88 0
9 42 -88 0
7 42 -85 0
9 42 -58 0
8 42 -57 0
9 43 -94 0
3 43 -81 0
2 43 -79 0
3 43 -49 0
10 43 69 0
3 43 73 0
5 43 88 0
5 44 -87 0
5 44 -86 0
5 44 -81 0
8 44 60 0
6 44 63 0
8 44 71 0
1 44 84 0
5 44 94 0
8 44 113 0
3 45 -66 0
4 45 -61 0
6 45 65 0
6 45 100 0
2 45 101 0
9 45 103 0
2 45 106 0
4 46 -98 0
9 46 -92 0
5 47 -106 0
2 47 -94 0
8 47 -48 0
2 47 61 0
1 47 64 0
6 47 69 0
1 47 82 0
3 47 85 0
7 47 97 0
3 48 -88 0
2 48 -75 0
9 48 -57 0
7 48 76 0
7 49 -111 0
4 49 -61 0
2 49 -52 0
4 49 88 0
10 50 -74 0
9 50 69 0
5 50 81 0
4 50 105 0
7 50 109 0
7 51 -95 0
7 51 -82 0
3 51 79 0
2 51 82 0
7 51 83 0
2 51 105 0
3 52 -99 0
1 52 67 0
10 52 76 0
8 52 95 0
2 53 -118 0
8 53 -88 0
9 53 -73 0
2 53 -61 0
4 53 63 0
9 53 84 0
4 53 94 0
2 53 106 0
2 54 -105 0
6 54 -91 0
10 54 -60 0
8 54 58 0
2 54 81 0
4 54 95 0
9 55 -119 0
6 55 63 0
4 55 81 0
7 55 102 0
10 55 115 0
7 56 -98 0
4 56 -88 0
7 56 -68 0
4 56 -65 0
6 56 66 0
8 57 -117 0
2 57 -113 0
7 57 64 0
1 57 67 0
2 57 88 0
6 57 93 0
8 58 -108 0
3 58 -90 0
4 58 -78 0
7 58 74 0
5 58 94 0
7 58 106 0
6 59 -101 0
8 59 67 0
8 59 72 0
7 59 81 0
4 59 103 0
8 60 -114 0
5 60 -105 0
5 60 -96 0
2 60 -71 0
4 60 -64 0
10 60 76 0
5 61 -109 0
2 61 -104 0
10 61 -81 0
2 61 68 0
5 61 75 0
6 61 78 0
5 61 103 0
10 62 -92 0
4 62 -64 0
6 62 65 0
6 62 67 0
5 63 -92 0
7 63 -80 0
3 63 74 0
3 63 99 0
9 64 -103 0
6 64 -85 0
9 64 -68 0
4 64 110 0
3 65 -81 0
5 65 113 0
2 66 -73 0
1 66 -70 0
2 66 82 0
4 66 112 0
8 66 120 0
7 67 72 0
8 67 74 0
9 67 94 0
10 67 95 0
8 67 111 0
4 68 -105 0
1 68 -91 0
7 68 -90 0
5 68 -83 0
5 68 69 0
4 68 85 0
10 68 90 0
5 68 108 0
7 68 109 0
6 69 -119 0
1 69 -74 0
2 69 118 0
3 70 -106 0
3 70 85 0
3 70 94 0
2 71 -112 0
8 71 -98 0
2 71 -92 0
5 71 -89 0
1 72 -118 0
6 72 77 0
6 73 -116 0
2 73 -115 0
7 73 -100 0
9 73 -85 0
9 74 -116 0
4 74 -95 0
7 74 87 0
8 74 91 0
4 74 107 0
5 75 -119 0
2 75 -118 0
4 75 -105 0
2 75 -98 0
7 75 -85 0
8 75 100 0
5 75 110 0
7 76 -94 0
3 76 -90 0
2 76 87 0
3 76 90 0
4 77 -107 0
3 77 81 0
5 77 99 0
6 78 -103 0
5 78 -98 0
6 79 -117 0
4 79 -100 0
6 79 -90 0
10 79 108 0
4 79 115 0
2 80 -100 0
6 80 -81 0
4 80 83 0
8 80 108 0
5 80 118 0
3 81 -88 0
2 82 -115 0
2 82 -109 0
1 82 -87 0
4 82 85 0
6 82 87 0
3 82 91 0
7 82 120 0
7 83 -111 0
9 83 -107 0
5 83 90 0
2 83 93 0
5 83 105 0
8 84 -99 0
3 84 113 0
7 85 89 0
1 85 109 0
5 86 -119 0
2 86 -108 0
6 86 98 0
9 86 106 0
7 87 97 0
8 87 116 0
5 88 -113 0
7 88 -106 0
2 89 99 0
6 89 115 0
2 90 96 0
5 90 106 0
4 90 110 0
6 91 117 0
8 92 -117 0
4 92 -106 0
7 92 104 0
8 93 -113 0
7 93 97 0
3 94 -115 0
10 94 -113 0
5 94 -110 0
9 94 -108 0
8 94 113 0
9 96 -107 0
1 96 108 0
4 97 -116 0
6 97 -114 0
3 97 -105 0
10 97 99 0
6 98 -118 0
7 98 109 0
2 98 114 0
2 100 101 0
6 101 102 0
7 101 113 0
9 102 -105 0
1 102 110 0
4 103 116 0
1 103 118 0
6 104 -111 0
5 104 118 0
6 104 120 0
9 105 110 0
2 106 109 0
3 108 114 0
3 110 -111 0
7 112 -120 0
1 112 119 0
10 116 -117 0
9 117 119 0
